generated by phonopy                    
   1.00000000000000     
     3.8769228934107276    0.0000000000000000    0.0000000000000000
     0.0000000000000000    3.8769228934107276   -0.0000000000000000
     0.0000000000000000    0.0000000000000000    4.1761735094846637
   Ti   Pb   O 
     1     1     3
Direct
  0.5000000000000000  0.5000000000000000  0.5777292312261024
 -0.0000000000000000 -0.0000000000000000  0.1150693251696872
 -0.0000000000000000  0.5000000000000000  0.4970655293867241
  0.5000000000000000 -0.0000000000000000  0.4970655293867241
  0.5000000000000000  0.5000000000000000  0.0032703948307602
 
  0.00000000E+00  0.00000000E+00  0.00000000E+00
  0.00000000E+00  0.00000000E+00  0.00000000E+00
  0.00000000E+00  0.00000000E+00  0.00000000E+00
  0.00000000E+00  0.00000000E+00  0.00000000E+00
  0.00000000E+00  0.00000000E+00  0.00000000E+00
