generated by phonopy
   1.0
     3.8795519000000009    0.0000000000000000    0.0000000000000000
     0.0000000000000000    3.8795519000000009    0.0000000000000000
     0.0000000000000000    0.0000000000000000    4.2858876200000005
Ti Pb O
   1    1    3
Direct
  0.4999999999999999  0.4999999999999999  0.5825144400000000
  0.0000000000000000  0.0000000000000000  0.1235879500000000
  0.0000000000000000  0.4999999999999999  0.4941576500000000
  0.4999999999999999  0.0000000000000000  0.4941576500000000
  0.4999999999999999  0.4999999999999999  0.9957823200000000
