generated by phonopy
   1.0
    15.5182076000000038    0.0000000000000000    0.0000000000000000
     0.0000000000000000   15.5182076000000038    0.0000000000000000
     0.0000000000000000    0.0000000000000000   12.8576628600000014
Ti Pb O
  48   48  144
Direct
  0.1250000000000000  0.1250000000000000  0.1941714800000000
  0.3750000000000000  0.1250000000000000  0.1941714800000000
  0.6250000000000000  0.1250000000000000  0.1941714800000000
  0.8750000000000000  0.1250000000000000  0.1941714800000000
  0.1250000000000000  0.3750000000000000  0.1941714800000000
  0.3750000000000000  0.3750000000000000  0.1941714800000000
  0.6250000000000000  0.3750000000000000  0.1941714800000000
  0.8750000000000000  0.3750000000000000  0.1941714800000000
  0.1250000000000000  0.6250000000000000  0.1941714800000000
  0.3750000000000000  0.6250000000000000  0.1941714800000000
  0.6250000000000000  0.6250000000000000  0.1941714800000000
  0.8750000000000000  0.6250000000000000  0.1941714800000000
  0.1250000000000000  0.8750000000000000  0.1941714800000000
  0.3750000000000000  0.8750000000000000  0.1941714800000000
  0.6250000000000000  0.8750000000000000  0.1941714800000000
  0.8750000000000000  0.8750000000000000  0.1941714800000000
  0.1250000000000000  0.1250000000000000  0.5275048133333333
  0.3750000000000000  0.1250000000000000  0.5275048133333333
  0.6250000000000000  0.1250000000000000  0.5275048133333333
  0.8750000000000000  0.1250000000000000  0.5275048133333333
  0.1250000000000000  0.3750000000000000  0.5275048133333333
  0.3750000000000000  0.3750000000000000  0.5275048133333333
  0.6250000000000000  0.3750000000000000  0.5275048133333333
  0.8750000000000000  0.3750000000000000  0.5275048133333333
  0.1250000000000000  0.6250000000000000  0.5275048133333333
  0.3750000000000000  0.6250000000000000  0.5275048133333333
  0.6250000000000000  0.6250000000000000  0.5275048133333333
  0.8750000000000000  0.6250000000000000  0.5275048133333333
  0.1250000000000000  0.8750000000000000  0.5275048133333333
  0.3750000000000000  0.8750000000000000  0.5275048133333333
  0.6250000000000000  0.8750000000000000  0.5275048133333333
  0.8750000000000000  0.8750000000000000  0.5275048133333333
  0.1250000000000000  0.1250000000000000  0.8608381466666666
  0.3750000000000000  0.1250000000000000  0.8608381466666666
  0.6250000000000000  0.1250000000000000  0.8608381466666666
  0.8750000000000000  0.1250000000000000  0.8608381466666666
  0.1250000000000000  0.3750000000000000  0.8608381466666666
  0.3750000000000000  0.3750000000000000  0.8608381466666666
  0.6250000000000000  0.3750000000000000  0.8608381466666666
  0.8750000000000000  0.3750000000000000  0.8608381466666666
  0.1250000000000000  0.6250000000000000  0.8608381466666666
  0.3750000000000000  0.6250000000000000  0.8608381466666666
  0.6250000000000000  0.6250000000000000  0.8608381466666666
  0.8750000000000000  0.6250000000000000  0.8608381466666666
  0.1250000000000000  0.8750000000000000  0.8608381466666666
  0.3750000000000000  0.8750000000000000  0.8608381466666666
  0.6250000000000000  0.8750000000000000  0.8608381466666666
  0.8750000000000000  0.8750000000000000  0.8608381466666666
  0.0000000000000000  0.0000000000000000  0.0411959833333333
  0.2500000000000000  0.0000000000000000  0.0411959833333333
  0.5000000000000000  0.0000000000000000  0.0411959833333333
  0.7500000000000000  0.0000000000000000  0.0411959833333333
  0.0000000000000000  0.2500000000000000  0.0411959833333333
  0.2500000000000000  0.2500000000000000  0.0411959833333333
  0.5000000000000000  0.2500000000000000  0.0411959833333333
  0.7500000000000000  0.2500000000000000  0.0411959833333333
  0.0000000000000000  0.5000000000000000  0.0411959833333333
  0.2500000000000000  0.5000000000000000  0.0411959833333333
  0.5000000000000000  0.5000000000000000  0.0411959833333333
  0.7500000000000000  0.5000000000000000  0.0411959833333333
  0.0000000000000000  0.7500000000000000  0.0411959833333333
  0.2500000000000000  0.7500000000000000  0.0411959833333333
  0.5000000000000000  0.7500000000000000  0.0411959833333333
  0.7500000000000000  0.7500000000000000  0.0411959833333333
  0.0000000000000000  0.0000000000000000  0.3745293166666667
  0.2500000000000000  0.0000000000000000  0.3745293166666667
  0.5000000000000000  0.0000000000000000  0.3745293166666667
  0.7500000000000000  0.0000000000000000  0.3745293166666667
  0.0000000000000000  0.2500000000000000  0.3745293166666667
  0.2500000000000000  0.2500000000000000  0.3745293166666667
  0.5000000000000000  0.2500000000000000  0.3745293166666667
  0.7500000000000000  0.2500000000000000  0.3745293166666667
  0.0000000000000000  0.5000000000000000  0.3745293166666667
  0.2500000000000000  0.5000000000000000  0.3745293166666667
  0.5000000000000000  0.5000000000000000  0.3745293166666667
  0.7500000000000000  0.5000000000000000  0.3745293166666667
  0.0000000000000000  0.7500000000000000  0.3745293166666667
  0.2500000000000000  0.7500000000000000  0.3745293166666667
  0.5000000000000000  0.7500000000000000  0.3745293166666667
  0.7500000000000000  0.7500000000000000  0.3745293166666667
  0.0000000000000000  0.0000000000000000  0.7078626500000000
  0.2500000000000000  0.0000000000000000  0.7078626500000000
  0.5000000000000000  0.0000000000000000  0.7078626500000000
  0.7500000000000000  0.0000000000000000  0.7078626500000000
  0.0000000000000000  0.2500000000000000  0.7078626500000000
  0.2500000000000000  0.2500000000000000  0.7078626500000000
  0.5000000000000000  0.2500000000000000  0.7078626500000000
  0.7500000000000000  0.2500000000000000  0.7078626500000000
  0.0000000000000000  0.5000000000000000  0.7078626500000000
  0.2500000000000000  0.5000000000000000  0.7078626500000000
  0.5000000000000000  0.5000000000000000  0.7078626500000000
  0.7500000000000000  0.5000000000000000  0.7078626500000000
  0.0000000000000000  0.7500000000000000  0.7078626500000000
  0.2500000000000000  0.7500000000000000  0.7078626500000000
  0.5000000000000000  0.7500000000000000  0.7078626500000000
  0.7500000000000000  0.7500000000000000  0.7078626500000000
  0.0000000000000000  0.1250000000000000  0.1647192166666667
  0.2500000000000000  0.1250000000000000  0.1647192166666667
  0.5000000000000000  0.1250000000000000  0.1647192166666667
  0.7500000000000000  0.1250000000000000  0.1647192166666667
  0.0000000000000000  0.3750000000000000  0.1647192166666667
  0.2500000000000000  0.3750000000000000  0.1647192166666667
  0.5000000000000000  0.3750000000000000  0.1647192166666667
  0.7500000000000000  0.3750000000000000  0.1647192166666667
  0.0000000000000000  0.6250000000000000  0.1647192166666667
  0.2500000000000000  0.6250000000000000  0.1647192166666667
  0.5000000000000000  0.6250000000000000  0.1647192166666667
  0.7500000000000000  0.6250000000000000  0.1647192166666667
  0.0000000000000000  0.8750000000000000  0.1647192166666667
  0.2500000000000000  0.8750000000000000  0.1647192166666667
  0.5000000000000000  0.8750000000000000  0.1647192166666667
  0.7500000000000000  0.8750000000000000  0.1647192166666667
  0.0000000000000000  0.1250000000000000  0.4980525500000000
  0.2500000000000000  0.1250000000000000  0.4980525500000000
  0.5000000000000000  0.1250000000000000  0.4980525500000000
  0.7500000000000000  0.1250000000000000  0.4980525500000000
  0.0000000000000000  0.3750000000000000  0.4980525500000000
  0.2500000000000000  0.3750000000000000  0.4980525500000000
  0.5000000000000000  0.3750000000000000  0.4980525500000000
  0.7500000000000000  0.3750000000000000  0.4980525500000000
  0.0000000000000000  0.6250000000000000  0.4980525500000000
  0.2500000000000000  0.6250000000000000  0.4980525500000000
  0.5000000000000000  0.6250000000000000  0.4980525500000000
  0.7500000000000000  0.6250000000000000  0.4980525500000000
  0.0000000000000000  0.8750000000000000  0.4980525500000000
  0.2500000000000000  0.8750000000000000  0.4980525500000000
  0.5000000000000000  0.8750000000000000  0.4980525500000000
  0.7500000000000000  0.8750000000000000  0.4980525500000000
  0.0000000000000000  0.1250000000000000  0.8313858833333333
  0.2500000000000000  0.1250000000000000  0.8313858833333333
  0.5000000000000000  0.1250000000000000  0.8313858833333333
  0.7500000000000000  0.1250000000000000  0.8313858833333333
  0.0000000000000000  0.3750000000000000  0.8313858833333333
  0.2500000000000000  0.3750000000000000  0.8313858833333333
  0.5000000000000000  0.3750000000000000  0.8313858833333333
  0.7500000000000000  0.3750000000000000  0.8313858833333333
  0.0000000000000000  0.6250000000000000  0.8313858833333333
  0.2500000000000000  0.6250000000000000  0.8313858833333333
  0.5000000000000000  0.6250000000000000  0.8313858833333333
  0.7500000000000000  0.6250000000000000  0.8313858833333333
  0.0000000000000000  0.8750000000000000  0.8313858833333333
  0.2500000000000000  0.8750000000000000  0.8313858833333333
  0.5000000000000000  0.8750000000000000  0.8313858833333333
  0.7500000000000000  0.8750000000000000  0.8313858833333333
  0.1250000000000000  0.0000000000000000  0.1647192166666667
  0.3750000000000000  0.0000000000000000  0.1647192166666667
  0.6250000000000000  0.0000000000000000  0.1647192166666667
  0.8750000000000000  0.0000000000000000  0.1647192166666667
  0.1250000000000000  0.2500000000000000  0.1647192166666667
  0.3750000000000000  0.2500000000000000  0.1647192166666667
  0.6250000000000000  0.2500000000000000  0.1647192166666667
  0.8750000000000000  0.2500000000000000  0.1647192166666667
  0.1250000000000000  0.5000000000000000  0.1647192166666667
  0.3750000000000000  0.5000000000000000  0.1647192166666667
  0.6250000000000000  0.5000000000000000  0.1647192166666667
  0.8750000000000000  0.5000000000000000  0.1647192166666667
  0.1250000000000000  0.7500000000000000  0.1647192166666667
  0.3750000000000000  0.7500000000000000  0.1647192166666667
  0.6250000000000000  0.7500000000000000  0.1647192166666667
  0.8750000000000000  0.7500000000000000  0.1647192166666667
  0.1250000000000000  0.0000000000000000  0.4980525500000000
  0.3750000000000000  0.0000000000000000  0.4980525500000000
  0.6250000000000000  0.0000000000000000  0.4980525500000000
  0.8750000000000000  0.0000000000000000  0.4980525500000000
  0.1250000000000000  0.2500000000000000  0.4980525500000000
  0.3750000000000000  0.2500000000000000  0.4980525500000000
  0.6250000000000000  0.2500000000000000  0.4980525500000000
  0.8750000000000000  0.2500000000000000  0.4980525500000000
  0.1250000000000000  0.5000000000000000  0.4980525500000000
  0.3750000000000000  0.5000000000000000  0.4980525500000000
  0.6250000000000000  0.5000000000000000  0.4980525500000000
  0.8750000000000000  0.5000000000000000  0.4980525500000000
  0.1250000000000000  0.7500000000000000  0.4980525500000000
  0.3750000000000000  0.7500000000000000  0.4980525500000000
  0.6250000000000000  0.7500000000000000  0.4980525500000000
  0.8750000000000000  0.7500000000000000  0.4980525500000000
  0.1250000000000000  0.0000000000000000  0.8313858833333333
  0.3750000000000000  0.0000000000000000  0.8313858833333333
  0.6250000000000000  0.0000000000000000  0.8313858833333333
  0.8750000000000000  0.0000000000000000  0.8313858833333333
  0.1250000000000000  0.2500000000000000  0.8313858833333333
  0.3750000000000000  0.2500000000000000  0.8313858833333333
  0.6250000000000000  0.2500000000000000  0.8313858833333333
  0.8750000000000000  0.2500000000000000  0.8313858833333333
  0.1250000000000000  0.5000000000000000  0.8313858833333333
  0.3750000000000000  0.5000000000000000  0.8313858833333333
  0.6250000000000000  0.5000000000000000  0.8313858833333333
  0.8750000000000000  0.5000000000000000  0.8313858833333333
  0.1250000000000000  0.7500000000000000  0.8313858833333333
  0.3750000000000000  0.7500000000000000  0.8313858833333333
  0.6250000000000000  0.7500000000000000  0.8313858833333333
  0.8750000000000000  0.7500000000000000  0.8313858833333333
  0.1250000000000000  0.1250000000000000  0.3319274400000000
  0.3750000000000000  0.1250000000000000  0.3319274400000000
  0.6250000000000000  0.1250000000000000  0.3319274400000000
  0.8750000000000000  0.1250000000000000  0.3319274400000000
  0.1250000000000000  0.3750000000000000  0.3319274400000000
  0.3750000000000000  0.3750000000000000  0.3319274400000000
  0.6250000000000000  0.3750000000000000  0.3319274400000000
  0.8750000000000000  0.3750000000000000  0.3319274400000000
  0.1250000000000000  0.6250000000000000  0.3319274400000000
  0.3750000000000000  0.6250000000000000  0.3319274400000000
  0.6250000000000000  0.6250000000000000  0.3319274400000000
  0.8750000000000000  0.6250000000000000  0.3319274400000000
  0.1250000000000000  0.8750000000000000  0.3319274400000000
  0.3750000000000000  0.8750000000000000  0.3319274400000000
  0.6250000000000000  0.8750000000000000  0.3319274400000000
  0.8750000000000000  0.8750000000000000  0.3319274400000000
  0.1250000000000000  0.1250000000000000  0.6652607733333333
  0.3750000000000000  0.1250000000000000  0.6652607733333333
  0.6250000000000000  0.1250000000000000  0.6652607733333333
  0.8750000000000000  0.1250000000000000  0.6652607733333333
  0.1250000000000000  0.3750000000000000  0.6652607733333333
  0.3750000000000000  0.3750000000000000  0.6652607733333333
  0.6250000000000000  0.3750000000000000  0.6652607733333333
  0.8750000000000000  0.3750000000000000  0.6652607733333333
  0.1250000000000000  0.6250000000000000  0.6652607733333333
  0.3750000000000000  0.6250000000000000  0.6652607733333333
  0.6250000000000000  0.6250000000000000  0.6652607733333333
  0.8750000000000000  0.6250000000000000  0.6652607733333333
  0.1250000000000000  0.8750000000000000  0.6652607733333333
  0.3750000000000000  0.8750000000000000  0.6652607733333333
  0.6250000000000000  0.8750000000000000  0.6652607733333333
  0.8750000000000000  0.8750000000000000  0.6652607733333333
  0.1250000000000000  0.1250000000000000  0.9985941066666666
  0.3750000000000000  0.1250000000000000  0.9985941066666666
  0.6250000000000000  0.1250000000000000  0.9985941066666666
  0.8750000000000000  0.1250000000000000  0.9985941066666666
  0.1250000000000000  0.3750000000000000  0.9985941066666666
  0.3750000000000000  0.3750000000000000  0.9985941066666666
  0.6250000000000000  0.3750000000000000  0.9985941066666666
  0.8750000000000000  0.3750000000000000  0.9985941066666666
  0.1250000000000000  0.6250000000000000  0.9985941066666666
  0.3750000000000000  0.6250000000000000  0.9985941066666666
  0.6250000000000000  0.6250000000000000  0.9985941066666666
  0.8750000000000000  0.6250000000000000  0.9985941066666666
  0.1250000000000000  0.8750000000000000  0.9985941066666666
  0.3750000000000000  0.8750000000000000  0.9985941066666666
  0.6250000000000000  0.8750000000000000  0.9985941066666666
  0.8750000000000000  0.8750000000000000  0.9985941066666666
