generated by phonopy                    
   1.00000000000000     
     2.8464970624022459    1.6434258452254158    2.3242234724007114
    -2.8464970624022459    1.6434258452254158    2.3242234724007114
    -0.0000000000000001   -3.2868516904508316    2.3242234724007114
   Sc   F 
     1     3
Direct
 -0.0000000000000000  0.0000000000000000 -0.0000000000000000
  0.5000000000000000  0.9999927878661421  0.0000072121338579
  0.9999927878661421  0.0000072121338579  0.5000000000000000
  0.0000072121338579  0.5000000000000000  0.9999927878661421
 
  0.00000000E+00  0.00000000E+00  0.00000000E+00
  0.00000000E+00  0.00000000E+00  0.00000000E+00
  0.00000000E+00  0.00000000E+00  0.00000000E+00
  0.00000000E+00  0.00000000E+00  0.00000000E+00
