generated by phonopy                    
   1.00000000000000     
     4.7193644113051221   -0.0000000000000000    0.0000000000000000
    -0.0000000000000000    4.7193644113051221    0.0000000000000000
     0.0000000000000000    0.0000000000000000    3.1376093282658988
   Zn   F 
     2     4
Direct
  0.5000000000000000  0.5000000000000000  0.5000000000000000
  0.0000000000000000  0.0000000000000000  0.0000000000000000
  0.6962629707953732  0.6962629707953732 -0.0000000000000000
  0.1962629707953732  0.8037370292046268  0.5000000000000000
  0.3037370292046267  0.3037370292046267  0.0000000000000000
  0.8037370292046268  0.1962629707953732  0.5000000000000000
 
  0.00000000E+00  0.00000000E+00  0.00000000E+00
  0.00000000E+00  0.00000000E+00  0.00000000E+00
  0.00000000E+00  0.00000000E+00  0.00000000E+00
  0.00000000E+00  0.00000000E+00  0.00000000E+00
  0.00000000E+00  0.00000000E+00  0.00000000E+00
  0.00000000E+00  0.00000000E+00  0.00000000E+00
