generated by phonopy                    
   1.00000000000000     
     4.7190390199941525    0.0000000000000000    0.0000000000000000
     0.0000000000000000    4.7190390199941525    0.0000000000000000
     0.0000000000000000    0.0000000000000000    3.1380763361300263
   Zn   F 
     2     4
Direct
  0.5000000000000000  0.5000000000000000  0.5000000000000000
  0.0000000000000000 -0.0000000000000000 -0.0000000000000000
  0.6962455475227436  0.6962455475227436  0.0000000000000000
  0.1962455475227435  0.8037544524772564  0.5000000000000000
  0.3037544524772564  0.3037544524772564  0.0000000000000000
  0.8037544524772564  0.1962455475227435  0.5000000000000000
 
  0.00000000E+00  0.00000000E+00  0.00000000E+00
  0.00000000E+00  0.00000000E+00  0.00000000E+00
  0.00000000E+00  0.00000000E+00  0.00000000E+00
  0.00000000E+00  0.00000000E+00  0.00000000E+00
  0.00000000E+00  0.00000000E+00  0.00000000E+00
  0.00000000E+00  0.00000000E+00  0.00000000E+00
