generated by phonopy
   1.0
    14.1580932339153662    0.0000000000000000    0.0000000000000000
     0.0000000000000000   14.1580932339153662    0.0000000000000000
     0.0000000000000000    0.0000000000000000   12.5504373130635951
Zn F
  72  144
Direct
  0.1666666666666667  0.1666666666666667  0.1250000000000000
  0.5000000000000000  0.1666666666666667  0.1250000000000000
  0.8333333333333333  0.1666666666666667  0.1250000000000000
  0.1666666666666667  0.5000000000000000  0.1250000000000000
  0.5000000000000000  0.5000000000000000  0.1250000000000000
  0.8333333333333333  0.5000000000000000  0.1250000000000000
  0.1666666666666667  0.8333333333333333  0.1250000000000000
  0.5000000000000000  0.8333333333333333  0.1250000000000000
  0.8333333333333333  0.8333333333333333  0.1250000000000000
  0.1666666666666667  0.1666666666666667  0.3750000000000000
  0.5000000000000000  0.1666666666666667  0.3750000000000000
  0.8333333333333333  0.1666666666666667  0.3750000000000000
  0.1666666666666667  0.5000000000000000  0.3750000000000000
  0.5000000000000000  0.5000000000000000  0.3750000000000000
  0.8333333333333333  0.5000000000000000  0.3750000000000000
  0.1666666666666667  0.8333333333333333  0.3750000000000000
  0.5000000000000000  0.8333333333333333  0.3750000000000000
  0.8333333333333333  0.8333333333333333  0.3750000000000000
  0.1666666666666667  0.1666666666666667  0.6250000000000000
  0.5000000000000000  0.1666666666666667  0.6250000000000000
  0.8333333333333333  0.1666666666666667  0.6250000000000000
  0.1666666666666667  0.5000000000000000  0.6250000000000000
  0.5000000000000000  0.5000000000000000  0.6250000000000000
  0.8333333333333333  0.5000000000000000  0.6250000000000000
  0.1666666666666667  0.8333333333333333  0.6250000000000000
  0.5000000000000000  0.8333333333333333  0.6250000000000000
  0.8333333333333333  0.8333333333333333  0.6250000000000000
  0.1666666666666667  0.1666666666666667  0.8750000000000000
  0.5000000000000000  0.1666666666666667  0.8750000000000000
  0.8333333333333333  0.1666666666666667  0.8750000000000000
  0.1666666666666667  0.5000000000000000  0.8750000000000000
  0.5000000000000000  0.5000000000000000  0.8750000000000000
  0.8333333333333333  0.5000000000000000  0.8750000000000000
  0.1666666666666667  0.8333333333333333  0.8750000000000000
  0.5000000000000000  0.8333333333333333  0.8750000000000000
  0.8333333333333333  0.8333333333333333  0.8750000000000000
  0.0000000000000000  0.0000000000000000  0.0000000000000000
  0.3333333333333333  0.0000000000000000  0.0000000000000000
  0.6666666666666666  0.0000000000000000  0.0000000000000000
  0.0000000000000000  0.3333333333333333  0.0000000000000000
  0.3333333333333333  0.3333333333333333  0.0000000000000000
  0.6666666666666666  0.3333333333333333  0.0000000000000000
  0.0000000000000000  0.6666666666666666  0.0000000000000000
  0.3333333333333333  0.6666666666666666  0.0000000000000000
  0.6666666666666666  0.6666666666666666  0.0000000000000000
  0.0000000000000000  0.0000000000000000  0.2500000000000000
  0.3333333333333333  0.0000000000000000  0.2500000000000000
  0.6666666666666666  0.0000000000000000  0.2500000000000000
  0.0000000000000000  0.3333333333333333  0.2500000000000000
  0.3333333333333333  0.3333333333333333  0.2500000000000000
  0.6666666666666666  0.3333333333333333  0.2500000000000000
  0.0000000000000000  0.6666666666666666  0.2500000000000000
  0.3333333333333333  0.6666666666666666  0.2500000000000000
  0.6666666666666666  0.6666666666666666  0.2500000000000000
  0.0000000000000000  0.0000000000000000  0.5000000000000000
  0.3333333333333333  0.0000000000000000  0.5000000000000000
  0.6666666666666666  0.0000000000000000  0.5000000000000000
  0.0000000000000000  0.3333333333333333  0.5000000000000000
  0.3333333333333333  0.3333333333333333  0.5000000000000000
  0.6666666666666666  0.3333333333333333  0.5000000000000000
  0.0000000000000000  0.6666666666666666  0.5000000000000000
  0.3333333333333333  0.6666666666666666  0.5000000000000000
  0.6666666666666666  0.6666666666666666  0.5000000000000000
  0.0000000000000000  0.0000000000000000  0.7500000000000000
  0.3333333333333333  0.0000000000000000  0.7500000000000000
  0.6666666666666666  0.0000000000000000  0.7500000000000000
  0.0000000000000000  0.3333333333333333  0.7500000000000000
  0.3333333333333333  0.3333333333333333  0.7500000000000000
  0.6666666666666666  0.3333333333333333  0.7500000000000000
  0.0000000000000000  0.6666666666666666  0.7500000000000000
  0.3333333333333333  0.6666666666666666  0.7500000000000000
  0.6666666666666666  0.6666666666666666  0.7500000000000000
  0.2320876569317911  0.2320876569317911  0.0000000000000000
  0.5654209902651244  0.2320876569317911  0.0000000000000000
  0.8987543235984577  0.2320876569317911  0.0000000000000000
  0.2320876569317911  0.5654209902651244  0.0000000000000000
  0.5654209902651244  0.5654209902651244  0.0000000000000000
  0.8987543235984577  0.5654209902651244  0.0000000000000000
  0.2320876569317911  0.8987543235984577  0.0000000000000000
  0.5654209902651244  0.8987543235984577  0.0000000000000000
  0.8987543235984577  0.8987543235984577  0.0000000000000000
  0.2320876569317911  0.2320876569317911  0.2500000000000000
  0.5654209902651244  0.2320876569317911  0.2500000000000000
  0.8987543235984577  0.2320876569317911  0.2500000000000000
  0.2320876569317911  0.5654209902651244  0.2500000000000000
  0.5654209902651244  0.5654209902651244  0.2500000000000000
  0.8987543235984577  0.5654209902651244  0.2500000000000000
  0.2320876569317911  0.8987543235984577  0.2500000000000000
  0.5654209902651244  0.8987543235984577  0.2500000000000000
  0.8987543235984577  0.8987543235984577  0.2500000000000000
  0.2320876569317911  0.2320876569317911  0.5000000000000000
  0.5654209902651244  0.2320876569317911  0.5000000000000000
  0.8987543235984577  0.2320876569317911  0.5000000000000000
  0.2320876569317911  0.5654209902651244  0.5000000000000000
  0.5654209902651244  0.5654209902651244  0.5000000000000000
  0.8987543235984577  0.5654209902651244  0.5000000000000000
  0.2320876569317911  0.8987543235984577  0.5000000000000000
  0.5654209902651244  0.8987543235984577  0.5000000000000000
  0.8987543235984577  0.8987543235984577  0.5000000000000000
  0.2320876569317911  0.2320876569317911  0.7500000000000000
  0.5654209902651244  0.2320876569317911  0.7500000000000000
  0.8987543235984577  0.2320876569317911  0.7500000000000000
  0.2320876569317911  0.5654209902651244  0.7500000000000000
  0.5654209902651244  0.5654209902651244  0.7500000000000000
  0.8987543235984577  0.5654209902651244  0.7500000000000000
  0.2320876569317911  0.8987543235984577  0.7500000000000000
  0.5654209902651244  0.8987543235984577  0.7500000000000000
  0.8987543235984577  0.8987543235984577  0.7500000000000000
  0.0654209902651244  0.2679123430682089  0.1250000000000000
  0.3987543235984577  0.2679123430682089  0.1250000000000000
  0.7320876569317911  0.2679123430682089  0.1250000000000000
  0.0654209902651244  0.6012456764015421  0.1250000000000000
  0.3987543235984577  0.6012456764015421  0.1250000000000000
  0.7320876569317911  0.6012456764015421  0.1250000000000000
  0.0654209902651244  0.9345790097348755  0.1250000000000000
  0.3987543235984577  0.9345790097348755  0.1250000000000000
  0.7320876569317911  0.9345790097348755  0.1250000000000000
  0.0654209902651244  0.2679123430682089  0.3750000000000000
  0.3987543235984577  0.2679123430682089  0.3750000000000000
  0.7320876569317911  0.2679123430682089  0.3750000000000000
  0.0654209902651244  0.6012456764015421  0.3750000000000000
  0.3987543235984577  0.6012456764015421  0.3750000000000000
  0.7320876569317911  0.6012456764015421  0.3750000000000000
  0.0654209902651244  0.9345790097348755  0.3750000000000000
  0.3987543235984577  0.9345790097348755  0.3750000000000000
  0.7320876569317911  0.9345790097348755  0.3750000000000000
  0.0654209902651244  0.2679123430682089  0.6250000000000000
  0.3987543235984577  0.2679123430682089  0.6250000000000000
  0.7320876569317911  0.2679123430682089  0.6250000000000000
  0.0654209902651244  0.6012456764015421  0.6250000000000000
  0.3987543235984577  0.6012456764015421  0.6250000000000000
  0.7320876569317911  0.6012456764015421  0.6250000000000000
  0.0654209902651244  0.9345790097348755  0.6250000000000000
  0.3987543235984577  0.9345790097348755  0.6250000000000000
  0.7320876569317911  0.9345790097348755  0.6250000000000000
  0.0654209902651244  0.2679123430682089  0.8750000000000000
  0.3987543235984577  0.2679123430682089  0.8750000000000000
  0.7320876569317911  0.2679123430682089  0.8750000000000000
  0.0654209902651244  0.6012456764015421  0.8750000000000000
  0.3987543235984577  0.6012456764015421  0.8750000000000000
  0.7320876569317911  0.6012456764015421  0.8750000000000000
  0.0654209902651244  0.9345790097348755  0.8750000000000000
  0.3987543235984577  0.9345790097348755  0.8750000000000000
  0.7320876569317911  0.9345790097348755  0.8750000000000000
  0.1012456764015422  0.1012456764015422  0.0000000000000000
  0.4345790097348755  0.1012456764015422  0.0000000000000000
  0.7679123430682089  0.1012456764015422  0.0000000000000000
  0.1012456764015422  0.4345790097348755  0.0000000000000000
  0.4345790097348755  0.4345790097348755  0.0000000000000000
  0.7679123430682089  0.4345790097348755  0.0000000000000000
  0.1012456764015422  0.7679123430682089  0.0000000000000000
  0.4345790097348755  0.7679123430682089  0.0000000000000000
  0.7679123430682089  0.7679123430682089  0.0000000000000000
  0.1012456764015422  0.1012456764015422  0.2500000000000000
  0.4345790097348755  0.1012456764015422  0.2500000000000000
  0.7679123430682089  0.1012456764015422  0.2500000000000000
  0.1012456764015422  0.4345790097348755  0.2500000000000000
  0.4345790097348755  0.4345790097348755  0.2500000000000000
  0.7679123430682089  0.4345790097348755  0.2500000000000000
  0.1012456764015422  0.7679123430682089  0.2500000000000000
  0.4345790097348755  0.7679123430682089  0.2500000000000000
  0.7679123430682089  0.7679123430682089  0.2500000000000000
  0.1012456764015422  0.1012456764015422  0.5000000000000000
  0.4345790097348755  0.1012456764015422  0.5000000000000000
  0.7679123430682089  0.1012456764015422  0.5000000000000000
  0.1012456764015422  0.4345790097348755  0.5000000000000000
  0.4345790097348755  0.4345790097348755  0.5000000000000000
  0.7679123430682089  0.4345790097348755  0.5000000000000000
  0.1012456764015422  0.7679123430682089  0.5000000000000000
  0.4345790097348755  0.7679123430682089  0.5000000000000000
  0.7679123430682089  0.7679123430682089  0.5000000000000000
  0.1012456764015422  0.1012456764015422  0.7500000000000000
  0.4345790097348755  0.1012456764015422  0.7500000000000000
  0.7679123430682089  0.1012456764015422  0.7500000000000000
  0.1012456764015422  0.4345790097348755  0.7500000000000000
  0.4345790097348755  0.4345790097348755  0.7500000000000000
  0.7679123430682089  0.4345790097348755  0.7500000000000000
  0.1012456764015422  0.7679123430682089  0.7500000000000000
  0.4345790097348755  0.7679123430682089  0.7500000000000000
  0.7679123430682089  0.7679123430682089  0.7500000000000000
  0.2679123430682089  0.0654209902651244  0.1250000000000000
  0.6012456764015421  0.0654209902651244  0.1250000000000000
  0.9345790097348755  0.0654209902651244  0.1250000000000000
  0.2679123430682089  0.3987543235984577  0.1250000000000000
  0.6012456764015421  0.3987543235984577  0.1250000000000000
  0.9345790097348755  0.3987543235984577  0.1250000000000000
  0.2679123430682089  0.7320876569317911  0.1250000000000000
  0.6012456764015421  0.7320876569317911  0.1250000000000000
  0.9345790097348755  0.7320876569317911  0.1250000000000000
  0.2679123430682089  0.0654209902651244  0.3750000000000000
  0.6012456764015421  0.0654209902651244  0.3750000000000000
  0.9345790097348755  0.0654209902651244  0.3750000000000000
  0.2679123430682089  0.3987543235984577  0.3750000000000000
  0.6012456764015421  0.3987543235984577  0.3750000000000000
  0.9345790097348755  0.3987543235984577  0.3750000000000000
  0.2679123430682089  0.7320876569317911  0.3750000000000000
  0.6012456764015421  0.7320876569317911  0.3750000000000000
  0.9345790097348755  0.7320876569317911  0.3750000000000000
  0.2679123430682089  0.0654209902651244  0.6250000000000000
  0.6012456764015421  0.0654209902651244  0.6250000000000000
  0.9345790097348755  0.0654209902651244  0.6250000000000000
  0.2679123430682089  0.3987543235984577  0.6250000000000000
  0.6012456764015421  0.3987543235984577  0.6250000000000000
  0.9345790097348755  0.3987543235984577  0.6250000000000000
  0.2679123430682089  0.7320876569317911  0.6250000000000000
  0.6012456764015421  0.7320876569317911  0.6250000000000000
  0.9345790097348755  0.7320876569317911  0.6250000000000000
  0.2679123430682089  0.0654209902651244  0.8750000000000000
  0.6012456764015421  0.0654209902651244  0.8750000000000000
  0.9345790097348755  0.0654209902651244  0.8750000000000000
  0.2679123430682089  0.3987543235984577  0.8750000000000000
  0.6012456764015421  0.3987543235984577  0.8750000000000000
  0.9345790097348755  0.3987543235984577  0.8750000000000000
  0.2679123430682089  0.7320876569317911  0.8750000000000000
  0.6012456764015421  0.7320876569317911  0.8750000000000000
  0.9345790097348755  0.7320876569317911  0.8750000000000000
