generated by phonopy
   1.0
     4.2466993200000003    0.0000000000000000    0.0000000000000000
     0.0000000000000000    4.2466993200000003    0.0000000000000000
     0.0000000000000000    0.0000000000000000    4.2466993200000003
Cu O
   4    2
Direct
  0.2500000000000000  0.2500000000000000  0.7500000000000000
  0.7500000000000000  0.2500000000000000  0.2500000000000000
  0.2500000000000000  0.7500000000000000  0.2500000000000000
  0.7500000000000000  0.7500000000000000  0.7500000000000000
  0.5000000000000000  0.5000000000000000  0.5000000000000000
  0.0000000000000000  0.0000000000000000  0.0000000000000000
