Sc F 
 1.0000000000000000
     8.5394911872067372    4.9302775356762476    6.9726704172021341
    -8.5394911872067372    4.9302775356762476    6.9726704172021341
    -0.0000000000000003   -9.8605550713524952    6.9726704172021341
 Sc  F  
  27  81
Direct
  0.0000000000000000  0.0000000000000000 -0.0000000000000000
  0.3333333333333333  0.0000000000000000 -0.0000000000000000
  0.6666666666666666  0.0000000000000000 -0.0000000000000000
  0.0000000000000000  0.3333333333333333  0.0000000000000001
  0.3333333333333333  0.3333333333333333  0.0000000000000001
  0.6666666666666666  0.3333333333333333  0.0000000000000001
  0.0000000000000000  0.6666666666666666  0.0000000000000001
  0.3333333333333333  0.6666666666666666  0.0000000000000001
  0.6666666666666666  0.6666666666666666  0.0000000000000001
  0.0000000000000000  0.0000000000000000  0.3333333333333333
  0.3333333333333333  0.0000000000000000  0.3333333333333333
  0.6666666666666666  0.0000000000000000  0.3333333333333333
  0.0000000000000000  0.3333333333333333  0.3333333333333334
  0.3333333333333333  0.3333333333333333  0.3333333333333334
  0.6666666666666666  0.3333333333333333  0.3333333333333334
 -0.0000000000000001  0.6666666666666665  0.3333333333333334
  0.3333333333333333  0.6666666666666666  0.3333333333333335
  0.6666666666666665  0.6666666666666665  0.3333333333333334
  0.0000000000000000  0.0000000000000000  0.6666666666666666
  0.3333333333333333 -0.0000000000000001  0.6666666666666667
  0.6666666666666666  0.0000000000000000  0.6666666666666666
 -0.0000000000000000  0.3333333333333333  0.6666666666666667
  0.3333333333333333  0.3333333333333333  0.6666666666666667
  0.6666666666666666  0.3333333333333333  0.6666666666666667
  0.0000000000000000  0.6666666666666666  0.6666666666666667
  0.3333333333333333  0.6666666666666666  0.6666666666666667
  0.6666666666666666  0.6666666666666666  0.6666666666666667
  0.1666666666666667  0.3333309292887141  0.0000024040446193
  0.5000000000000000  0.3333309292887141  0.0000024040446193
  0.8333333333333334  0.3333309292887140  0.0000024040446193
  0.1666666666666667  0.6666642626220474  0.0000024040446193
  0.5000000000000000  0.6666642626220474  0.0000024040446193
  0.8333333333333333  0.6666642626220471  0.0000024040446194
  0.1666666666666665  0.9999975959553805  0.0000024040446194
  0.4999999999999999  0.9999975959553805  0.0000024040446194
  0.8333333333333334  0.9999975959553805  0.0000024040446193
  0.1666666666666667  0.3333309292887141  0.3333357373779526
  0.5000000000000001  0.3333309292887141  0.3333357373779526
  0.8333333333333335  0.3333309292887141  0.3333357373779526
  0.1666666666666667  0.6666642626220474  0.3333357373779526
  0.5000000000000000  0.6666642626220474  0.3333357373779526
  0.8333333333333335  0.6666642626220474  0.3333357373779527
  0.1666666666666665  0.9999975959553805  0.3333357373779526
  0.5000000000000000  0.9999975959553806  0.3333357373779529
  0.8333333333333334  0.9999975959553805  0.3333357373779527
  0.1666666666666667  0.3333309292887141  0.6666690707112860
  0.5000000000000001  0.3333309292887141  0.6666690707112859
  0.8333333333333335  0.3333309292887141  0.6666690707112860
  0.1666666666666667  0.6666642626220474  0.6666690707112859
  0.5000000000000001  0.6666642626220475  0.6666690707112858
  0.8333333333333333  0.6666642626220471  0.6666690707112860
  0.1666666666666665  0.9999975959553805  0.6666690707112859
  0.5000000000000000  0.9999975959553806  0.6666690707112860
  0.8333333333333335  0.9999975959553806  0.6666690707112860
  0.3333309292887141  0.0000024040446193  0.1666666666666667
  0.6666642626220474  0.0000024040446193  0.1666666666666667
  0.9999975959553807  0.0000024040446193  0.1666666666666668
  0.3333309292887141  0.3333357373779526  0.1666666666666667
  0.6666642626220474  0.3333357373779526  0.1666666666666668
  0.9999975959553807  0.3333357373779526  0.1666666666666667
  0.3333309292887139  0.6666690707112859  0.1666666666666667
  0.6666642626220473  0.6666690707112859  0.1666666666666667
  0.9999975959553805  0.6666690707112859  0.1666666666666667
  0.3333309292887141  0.0000024040446194  0.4999999999999999
  0.6666642626220474  0.0000024040446193  0.4999999999999999
  0.9999975959553807  0.0000024040446193  0.5000000000000000
  0.3333309292887141  0.3333357373779527  0.5000000000000000
  0.6666642626220474  0.3333357373779526  0.5000000000000000
  0.9999975959553807  0.3333357373779526  0.5000000000000001
  0.3333309292887139  0.6666690707112859  0.4999999999999999
  0.6666642626220474  0.6666690707112860  0.5000000000000000
  0.9999975959553805  0.6666690707112859  0.5000000000000000
  0.3333309292887142  0.0000024040446194  0.8333333333333333
  0.6666642626220474  0.0000024040446193  0.8333333333333333
  0.9999975959553807  0.0000024040446192  0.8333333333333335
  0.3333309292887141  0.3333357373779527  0.8333333333333333
  0.6666642626220475  0.3333357373779527  0.8333333333333333
  0.9999975959553807  0.3333357373779526  0.8333333333333333
  0.3333309292887142  0.6666690707112861  0.8333333333333333
  0.6666642626220474  0.6666690707112860  0.8333333333333333
  0.9999975959553807  0.6666690707112860  0.8333333333333335
  0.0000024040446193  0.1666666666666666  0.3333309292887141
  0.3333357373779526  0.1666666666666666  0.3333309292887141
  0.6666690707112858  0.1666666666666666  0.3333309292887140
  0.0000024040446193  0.4999999999999999  0.3333309292887140
  0.3333357373779526  0.5000000000000000  0.3333309292887141
  0.6666690707112860  0.5000000000000001  0.3333309292887141
  0.0000024040446192  0.8333333333333333  0.3333309292887141
  0.3333357373779526  0.8333333333333334  0.3333309292887141
  0.6666690707112858  0.8333333333333333  0.3333309292887140
  0.0000024040446194  0.1666666666666667  0.6666642626220471
  0.3333357373779526  0.1666666666666667  0.6666642626220471
  0.6666690707112858  0.1666666666666666  0.6666642626220471
  0.0000024040446193  0.4999999999999999  0.6666642626220471
  0.3333357373779526  0.5000000000000000  0.6666642626220473
  0.6666690707112859  0.5000000000000000  0.6666642626220474
  0.0000024040446194  0.8333333333333335  0.6666642626220474
  0.3333357373779525  0.8333333333333333  0.6666642626220471
  0.6666690707112858  0.8333333333333333  0.6666642626220471
  0.0000024040446192  0.1666666666666666  0.9999975959553806
  0.3333357373779526  0.1666666666666666  0.9999975959553806
  0.6666690707112858  0.1666666666666666  0.9999975959553806
  0.0000024040446193  0.4999999999999999  0.9999975959553806
  0.3333357373779526  0.4999999999999999  0.9999975959553806
  0.6666690707112860  0.5000000000000001  0.9999975959553806
  0.0000024040446193  0.8333333333333334  0.9999975959553806
  0.3333357373779526  0.8333333333333334  0.9999975959553806
  0.6666690707112858  0.8333333333333333  0.9999975959553805
